1 0 1 1 0 0 0 1 
0 36 38 37 14 14 22 29 
36 0 13 32 39 11 19 30 
38 13 0 32 15 13 17 35 
37 32 32 0 34 32 21 36 
14 39 15 34 0 26 14 19 
14 11 13 32 26 0 36 12 
22 19 17 21 14 36 0 9 
29 30 35 36 19 12 9 0 
5 5
1P 5B 3P 2B 4P 7B 8P 6B = 130